Reading model...
...model read.
creating competitive generators file...
...competitive generators recorded.
Loading data...
.. real-time data read.
Compiling instance...
...instance created.
Creating Offer Mitigation (model will solve as dispatch if TRUE)...
...storage offer mitigation file created
Converting model to MPEC...
...converted
NOTE: initial MIP solve with only storage competitive to get feasible solution
Solving...

Welcome to IBM(R) ILOG(R) CPLEX(R) Interactive Optimizer 12.10.0.0
  with Simplex, Mixed Integer & Barrier Optimizers
5725-A06 5725-A29 5724-Y48 5724-Y49 5724-Y54 5724-Y55 5655-Y21
Copyright IBM Corp. 1988, 2019.  All Rights Reserved.

Type 'help' for a list of available commands.
Type 'help' followed by a command name for more
information on commands.

CPLEX> Logfile 'cplex.log' closed.
Logfile 'C:\Users\wenmi\Desktop\competitiveMPEC\logs\tmpsc3ryw9p.cplex.log' open.
CPLEX> New value for parallel optimization mode: -1
CPLEX> New value for mixed integer optimality gap tolerance: 0.05
CPLEX> New value for deterministic time limit in ticks: 100000
CPLEX> Problem 'C:\Users\wenmi\Desktop\competitiveMPEC\logs\tmpysuckpt2.pyomo.lp' read.
Read time = 0.31 sec. (27.43 ticks)
CPLEX> Problem name         : C:\Users\wenmi\Desktop\competitiveMPEC\logs\tmpysuckpt2.pyomo.lp
Objective sense      : Maximize
Variables            :  107779  [Nneg: 1,  Box: 44054,  Free: 8928,
                                 Binary: 54796]
Objective nonzeros   :   18538
Linear constraints   :  246995  [Less: 82866,  Greater: 118424,  Equal: 45705]
  Nonzeros           :  581845
  RHS nonzeros       :  135656

Variables            : Min LB: -5000.000        Max UB: 1000000.       
Objective nonzeros   : Min   : 0.008333333      Max   : 2500.000       
Linear constraints   :
  Nonzeros           : Min   : 0.008333333      Max   : 1000000.       
  RHS nonzeros       : Min   : 2.500000e-07     Max   : 1000000.       
CPLEX> Version identifier: 12.10.0.0 | 2019-11-26 | 843d4de2ae
CPXPARAM_Parallel                                -1
CPXPARAM_DetTimeLimit                            100000
CPXPARAM_MIP_Tolerances_MIPGap                   0.050000000000000003
Tried aggregator 2 times.
MIP Presolve eliminated 176444 rows and 36942 columns.
MIP Presolve added 7084 rows and 0 columns.
MIP Presolve modified 50870 coefficients.
Aggregator did 25930 substitutions.
Reduced MIP has 51705 rows, 44052 columns, and 141990 nonzeros.
Reduced MIP has 17418 binaries, 0 generals, 0 SOSs, and 0 indicators.
Presolve time = 0.30 sec. (291.65 ticks)
Probing fixed 746 vars, tightened 8064 bounds.
Probing time = 0.09 sec. (16.75 ticks)
Tried aggregator 2 times.
Detecting symmetries...
MIP Presolve eliminated 1684 rows and 1498 columns.
MIP Presolve modified 6524 coefficients.
Aggregator did 96 substitutions.
Reduced MIP has 49925 rows, 42458 columns, and 136808 nonzeros.
Reduced MIP has 16672 binaries, 0 generals, 0 SOSs, and 0 indicators.
Presolve time = 0.16 sec. (248.34 ticks)
Probing fixed 1 vars, tightened 235 bounds.
Probing time = 0.20 sec. (23.97 ticks)
Clique table members: 88913.
MIP emphasis: balance optimality and feasibility.
MIP search method: dynamic search.
Parallel mode: opportunistic, using up to 16 threads.
Root relaxation solution time = 0.73 sec. (2111.32 ticks)

        Nodes                                         Cuts/
   Node  Left     Objective  IInf  Best Integer    Best Bound    ItCnt     Gap

      0     0     1691.5726   217                   1691.5726    10726         
      0     0     1691.5728   217                    Cuts: 62    10753         
      0     0     1691.2610   217                    Cuts: 15    10775         
      0     0     1688.6469   217                    Cuts: 26    10792         
      0     0     1646.0619   217                    Cuts: 32    10814         
      0     0     1627.9191   217                    Cuts: 16    10830         
      0     0     1627.5565   217                    Cuts: 13    10849         
      0     0     1627.0919   217                     Cuts: 8    10859         
      0     0     1627.0856   217                    Cuts: 19    10874         
      0     0     1626.9572   217                     Cuts: 2    10887         
      0     3        2.4445    28                   1576.0529    11009         
Elapsed time = 8.69 sec. (10843.74 ticks, tree = 0.02 MB, solutions = 0)
    130    46    -1230.7973    14                    740.5111    11547         
    273    59      -64.1227     5                    487.7816    11571         
*   291+  101                          -49.5539      487.7816              --- 
    454   153    -1420.8613    14      -49.5539       34.1922    13305  169.00%
    552    14       32.7783    14      -49.5539       34.1922    16484  169.00%

Clique cuts applied:  3
Cover cuts applied:  11
Implied bound cuts applied:  6
Flow cuts applied:  62
Mixed integer rounding cuts applied:  22
Gomory fractional cuts applied:  14

Root node processing (before b&c):
  Real time             =    7.66 sec. (10746.25 ticks)
Parallel b&c, 16 threads:
  Real time             =    5.00 sec. (1251.38 ticks)
  Sync time (average)   =    0.50 sec.
  Wait time (average)   =    0.00 sec.
                          ------------
Total (root+branch&cut) =   12.66 sec. (11997.63 ticks)

Solution pool: 1 solution saved.

MIP - Integer optimal solution:  Objective = -4.9553866646e+01
Solution time =   12.67 sec.  Iterations = 16739  Nodes = 593
Deterministic time = 11997.94 ticks  (946.81 ticks/sec)

CPLEX> Incumbent solution written to file 'C:\Users\wenmi\Desktop\competitiveMPEC\logs\tmp_p_awwo3.cplex.sol'.
CPLEX> NOTE: no warmstart specified for MIP iteration, default behavior is true
NOTE: resolving with all competitive generators using storage-only solution to warmstart
Solving...

Welcome to IBM(R) ILOG(R) CPLEX(R) Interactive Optimizer 12.10.0.0
  with Simplex, Mixed Integer & Barrier Optimizers
5725-A06 5725-A29 5724-Y48 5724-Y49 5724-Y54 5724-Y55 5655-Y21
Copyright IBM Corp. 1988, 2019.  All Rights Reserved.

Type 'help' for a list of available commands.
Type 'help' followed by a command name for more
information on commands.

CPLEX> Logfile 'cplex.log' closed.
Logfile 'C:\Users\wenmi\Desktop\competitiveMPEC\logs\tmps77w4jon.cplex.log' open.
CPLEX> New value for parallel optimization mode: -1
CPLEX> New value for mixed integer optimality gap tolerance: 0.05
CPLEX> New value for deterministic time limit in ticks: 100000
CPLEX> Problem 'C:\Users\wenmi\Desktop\competitiveMPEC\logs\tmpxg9iga6s.pyomo.lp' read.
Read time = 0.33 sec. (27.47 ticks)
CPLEX> MIP start file 'C:\Users\wenmi\Desktop\competitiveMPEC\logs\tmphc11_x1a.cplex.mst' read.
CPLEX> Problem name         : C:\Users\wenmi\Desktop\competitiveMPEC\logs\tmpxg9iga6s.pyomo.lp
Objective sense      : Maximize
Variables            :  109219  [Nneg: 1,  Box: 45494,  Free: 8928,
                                 Binary: 54796]
Objective nonzeros   :   19930
Linear constraints   :  246995  [Less: 82866,  Greater: 118424,  Equal: 45705]
  Nonzeros           :  581845
  RHS nonzeros       :  135656

Variables            : Min LB: -5000.000        Max UB: 1000000.       
Objective nonzeros   : Min   : 0.008333333      Max   : 2500.000       
Linear constraints   :
  Nonzeros           : Min   : 0.008333333      Max   : 1000000.       
  RHS nonzeros       : Min   : 2.500000e-07     Max   : 1000000.       
CPLEX> Version identifier: 12.10.0.0 | 2019-11-26 | 843d4de2ae
CPXPARAM_Parallel                                -1
CPXPARAM_DetTimeLimit                            100000
CPXPARAM_MIP_Tolerances_MIPGap                   0.050000000000000003
1 of 1 MIP starts provided solutions.
MIP start 'm1' defined initial solution with objective -49.5539.
Tried aggregator 2 times.
MIP Presolve eliminated 176444 rows and 38382 columns.
MIP Presolve added 7084 rows and 0 columns.
MIP Presolve modified 50870 coefficients.
Aggregator did 25930 substitutions.
Reduced MIP has 51705 rows, 44052 columns, and 141990 nonzeros.
Reduced MIP has 17418 binaries, 0 generals, 0 SOSs, and 0 indicators.
Presolve time = 0.31 sec. (292.26 ticks)
Probing fixed 746 vars, tightened 8064 bounds.
Probing time = 0.09 sec. (16.75 ticks)
Tried aggregator 2 times.
Detecting symmetries...
MIP Presolve eliminated 1684 rows and 1498 columns.
MIP Presolve modified 6524 coefficients.
Aggregator did 96 substitutions.
Reduced MIP has 49925 rows, 42458 columns, and 136808 nonzeros.
Reduced MIP has 16672 binaries, 0 generals, 0 SOSs, and 0 indicators.
Presolve time = 0.16 sec. (248.34 ticks)
Probing fixed 1 vars, tightened 227 bounds.
Probing time = 0.17 sec. (19.84 ticks)
Clique table members: 88644.
MIP emphasis: balance optimality and feasibility.
MIP search method: dynamic search.
Parallel mode: opportunistic, using up to 16 threads.
Root relaxation solution time = 0.91 sec. (2520.03 ticks)

        Nodes                                         Cuts/
   Node  Left     Objective  IInf  Best Integer    Best Bound    ItCnt     Gap

*     0+    0                          -49.5539   1.42248e+07              --- 
      0     0    26180.7995   630      -49.5539    26180.7995    12945     --- 
*     0+    0                          126.1320    26180.7995              --- 
      0     0    25715.3821   630      126.1320     Cuts: 478    13603     --- 
      0     0    24156.5986   630      126.1320    Cuts: 1355    14552     --- 
      0     0    23994.2410   630      126.1320     Cuts: 510    14934     --- 
      0     0    23885.4843   630      126.1320     Cuts: 577    15393     --- 
      0     0    23800.3618   630      126.1320     Cuts: 225    15575     --- 
      0     0    23722.2707   630      126.1320     Cuts: 128    15686     --- 
      0     0    23709.3881   630      126.1320     Cuts: 155    15769     --- 
      0     0    23702.8932   630      126.1320     Cuts: 134    15820     --- 
      0     0    23692.3758   630      126.1320      Cuts: 68    15868     --- 
      0     0    23669.9827   630      126.1320      Cuts: 43    15969     --- 
      0     0    23626.5750   630      126.1320      Cuts: 50    16037     --- 
      0     0    23607.1765   630      126.1320      Cuts: 51    16106     --- 
      0     0    23598.9359   630      126.1320      Cuts: 87    16175     --- 
      0     0    23591.9004   630      126.1320      Cuts: 40    16241     --- 
      0     0    23587.4415   630      126.1320      Cuts: 22    16305     --- 
      0     0    23587.4415   630      126.1320      Cuts: 12    16307     --- 
      0     0    23587.4415   630      126.1320       Cuts: 4    16308     --- 
      0     9        cutoff            126.1320    23391.8672    16782     --- 
Elapsed time = 8.56 sec. (9812.05 ticks, tree = 0.02 MB, solutions = 2)
     44    26    19328.0102   408      126.1320    23251.9101    18717     --- 
    181    27    17636.2412   332      126.1320    23220.7261    21341     --- 
    304    63    14994.5446   205      126.1320    23220.7261    26375     --- 
    448   116    12340.3280   197      126.1320    23220.7261    28825     --- 
    575   169    11459.4963   180      126.1320    23220.7261    30757     --- 
    707   455     8806.2708   135      126.1320    23220.7261    39091     --- 
    867   404     9343.4045   152      126.1320    23220.7261    38318     --- 
   1022   500     7532.4183   124      126.1320    23220.7261    40056     --- 
   1160   642     9711.5507   271      126.1320    23220.7261    43260     --- 
   1746  1231    10019.6189   249      126.1320    23220.7261    53297     --- 
Elapsed time = 24.89 sec. (12928.68 ticks, tree = 15.26 MB, solutions = 2)
   2208  1665     8539.0242   172      126.1320    23220.7261    60893     --- 
   2687  1722     5179.8438    86      126.1320    23220.7261    61708     --- 
   3243  2471     8258.9095   222      126.1320    23220.7261    74852     --- 
   3861  2904     1856.4536    42      126.1320    23220.7261    84050     --- 
   4472  3122     8395.7575   277      126.1320    23004.0957    88037     --- 
   4916  3468     4493.5896   148      126.1320    23004.0957    95519     --- 

Performing restart 1

Repeating presolve.
Tried aggregator 4 times.
MIP Presolve eliminated 1491 rows and 1352 columns.
MIP Presolve modified 54256 coefficients.
Aggregator did 364 substitutions.
Reduced MIP has 48070 rows, 40742 columns, and 130615 nonzeros.
Reduced MIP has 16092 binaries, 0 generals, 0 SOSs, and 0 indicators.
Presolve time = 0.19 sec. (187.91 ticks)
Tried aggregator 2 times.
MIP Presolve eliminated 849 rows and 694 columns.
MIP Presolve modified 20964 coefficients.
Aggregator did 4 substitutions.
Reduced MIP has 47217 rows, 40044 columns, and 128216 nonzeros.
Reduced MIP has 15745 binaries, 0 generals, 0 SOSs, and 0 indicators.
Presolve time = 0.08 sec. (85.41 ticks)
Tried aggregator 1 time.
MIP Presolve modified 15019 coefficients.
Reduced MIP has 47217 rows, 40044 columns, and 128216 nonzeros.
Reduced MIP has 15745 binaries, 0 generals, 0 SOSs, and 0 indicators.
Presolve time = 0.13 sec. (132.57 ticks)
Represolve time = 1.20 sec. (664.09 ticks)
*  5016+    0                          693.5448    13420.1418              --- 
   5016     0    10876.2479   803      693.5448    Cuts: 1660   130450     --- 
   5016     0    10855.8539   803      693.5448     Cuts: 546   130766     --- 
   5016     0    10843.6372   803      693.5448     Cuts: 325   130955     --- 
   5016     0    10832.5740   803      693.5448     Cuts: 189   131110     --- 
   5016     0    10808.4863   803      693.5448     Cuts: 211   131267     --- 
   5016     0    10795.9226   803      693.5448     Cuts: 191   131452     --- 
*  5016+    0                          963.1974    10795.9226              --- 
   5016     0    10789.6279   803      963.1974     Cuts: 186   131570     --- 
   5016     0    10787.0593   803      963.1974     Cuts: 204   131705  991.48%
   5016     0    10779.3186   803      963.1974     Cuts: 252   131838  991.48%
*  5016+    0                         1520.0208    10513.0615           591.64%
   5016     0    10775.9652   803     1520.0208     Cuts: 141   131980  591.64%
   5016     0    10748.5825   803     1520.0208     Cuts: 175   132130  591.64%
   5016     0    10745.0615   803     1520.0208     Cuts: 224   132269  591.64%
   5016    14    infeasible           1520.0208     9010.8755   134131  492.81%
   5040     8     7759.0281   357     1520.0208     9010.8755   133306  492.81%
   5131    34     6220.1187   335     1520.0208     8926.1141   135445  487.24%
   5261    51     5432.9735   242     1520.0208     8926.1141   136715  487.24%
Elapsed time = 94.94 sec. (53961.69 ticks, tree = 0.33 MB, solutions = 5)
   5423    74     5923.7819   252     1520.0208     8926.1141   137060  487.24%
   5557    53     4490.0439   261     1520.0208     8926.1141   135861  487.24%
   5798   253     5580.9164   214     1520.0208     8926.1141   142329  487.24%
   6038   316     3587.3201   215     1520.0208     8926.1141   144069  487.24%
   6281   516     5502.3414   151     1520.0208     8738.0524   150092  474.86%
   6571   713     4977.4543   310     1520.0208     8738.0524   154702  474.86%
   6874   596     5468.5257   206     1520.0208     8738.0524   151959  474.86%
   7273  1242     4707.0745   268     1520.0208     8676.8575   169834  470.84%
   7737   914     1617.2542   243     1520.0208     8055.8739   161089  429.98%
   8248   889     4447.5467   224     1520.0208     8055.8739   160519  429.98%
Elapsed time = 143.97 sec. (63527.80 ticks, tree = 10.30 MB, solutions = 5)
   8734  1312     5932.2684   265     1520.0208     8011.1134   172446  427.04%
   9276  2169     7635.4298   277     1520.0208     8011.1134   192947  427.04%
   9833  1654     2010.3652   218     1520.0208     8011.1134   179958  427.04%
  10394  2105     2389.2263   146     1520.0208     7856.8198   191635  416.89%
  10965  3459     6519.4779   247     1520.0208     7856.8198   237864  416.89%
  11574  3820        cutoff           1520.0208     7856.8198   249141  416.89%
  12129  3707     4134.2992   228     1520.0208     7856.8198   244131  416.89%
  12652  3066     3982.1682   255     1520.0208     7836.7679   227535  415.57%
  13218  5207     2161.3094   250     1520.0208     7795.0002   291852  412.82%
  13727  4537     7460.8057   216     1520.0208     7700.8629   272900  406.63%
Elapsed time = 191.58 sec. (73079.72 ticks, tree = 66.04 MB, solutions = 5)
  14220  4878     6043.5700   185     1520.0208     7700.8629   283285  406.63%
  14647  4986     5839.9744   283     1520.0208     7700.8629   287000  406.63%
  15056  5827     5277.3122   229     1520.0208     7644.5306   313060  402.92%
  15540  5917     5644.3430   195     1520.0208     7643.7473   316353  402.87%
  15939  6192     5444.2955   252     1520.0208     7617.5699   326142  401.15%
  16351  6371     5594.3358   257     1520.0208     7617.5699   332307  401.15%
  16697  7182     5771.8984   193     1520.0208     7561.4884   356286  397.46%
  17024  7370     4362.1897   243     1520.0208     7497.9700   367880  393.28%
  17397  7391     2535.5458   224     1520.0208     7497.9700   368793  393.28%
  17761  8083        cutoff           1520.0208     7497.9700   404523  393.28%
Elapsed time = 239.66 sec. (82637.66 ticks, tree = 122.92 MB, solutions = 5)
  18187  7678     6192.7966   253     1520.0208     7497.9700   382172  393.28%
  18645  8556     3287.5953   166     1520.0208     7497.9700   427034  393.28%
  19046  8052     4410.8224   300     1520.0208     7467.9396   403548  391.31%
  19460  8715        cutoff           1520.0208     7447.8054   437847  389.98%
  19890  8778     4551.9672   187     1520.0208     7420.1376   439298  388.16%
  20278  9559     3875.2732   272     1520.0208     7356.3988   484876  383.97%
  20644  9210     4574.6811   288     1520.0208     7356.3988   461844  383.97%
  20978  9131     2407.5955   252     1520.0208     7356.3988   456864  383.97%
  21313 10014     7117.4159   277     1520.0208     7356.3988   512352  383.97%
  21698  9837     5458.3254   234     1520.0208     7348.0182   498847  383.42%
Elapsed time = 288.72 sec. (92186.66 ticks, tree = 149.56 MB, solutions = 5)
  22118  9947        cutoff           1520.0208     7324.2935   507437  381.85%
  22624 10176     5702.4091   193     1520.0208     7324.2935   522797  381.85%
  23083 10635     1894.3892   177     1520.0208     7324.2935   554169  381.85%
  23523 10432        cutoff           1520.0208     7324.2935   543811  381.85%
  23852 10950     4400.7136   331     1520.0208     7324.2935   570451  381.85%
  24078 10701     1974.6294   175     1520.0208     7324.2935   557105  381.85%
  24258 10720     6332.7649   325     1520.0208     7324.2935   558363  381.85%
  24387 10832     2804.7477   192     1520.0208     7324.2935   560824  381.85%

GUB cover cuts applied:  4
Clique cuts applied:  88
Cover cuts applied:  87
Implied bound cuts applied:  303
Flow cuts applied:  1172
Mixed integer rounding cuts applied:  256
Zero-half cuts applied:  1
Lift and project cuts applied:  37
Gomory fractional cuts applied:  75

Root node processing (before b&c):
  Real time             =    7.61 sec. (9761.17 ticks)
Parallel b&c, 16 threads:
  Real time             =  288.69 sec. (90285.64 ticks)
  Sync time (average)   =    4.84 sec.
  Wait time (average)   =    0.09 sec.
                          ------------
Total (root+branch&cut) =  296.30 sec. (100046.81 ticks)

Solution pool: 5 solutions saved.

MIP - Deterministic time limit exceeded, integer feasible:  Objective =  1.5200208435e+03
Current MIP best bound =  7.1919356452e+03 (gap = 5671.91, 373.15%)
Solution time =  296.30 sec.  Iterations = 636986  Nodes = 24400 (12447)
Deterministic time = 100047.12 ticks  (337.66 ticks/sec)

CPLEX> Incumbent solution written to file 'C:\Users\wenmi\Desktop\competitiveMPEC\logs\tmp1hxn93xi.cplex.sol'.
CPLEX> Exporting results... 
